
Gurobi 11.0.0 (linux64) logging started Tue Sep 17 02:46:29 2024

Set parameter LogFile to value "gurobi.log"
Set parameter InfUnbdInfo to value 1
Gurobi Optimizer version 11.0.0 build v11.0.0rc2 (linux64 - "Ubuntu 22.04.4 LTS")

CPU model: AMD EPYC 7V13 64-Core Processor, instruction set [SSE2|AVX|AVX2]
Thread count: 128 physical cores, 128 logical processors, using up to 32 threads

Optimize a model with 52 rows, 218 columns and 125 nonzeros
Model fingerprint: 0x84e3cc06
Model has 180 quadratic constraints
Model has 1 general constraint
Variable types: 56 continuous, 162 integer (0 binary)
Coefficient statistics:
  Matrix range     [1e+00, 2e+05]
  QMatrix range    [1e+00, 2e+05]
  QLMatrix range   [1e+00, 2e+05]
  Objective range  [1e+00, 1e+00]
  Bounds range     [1e+00, 3e+10]
  RHS range        [1e+00, 2e+06]
  QRHS range       [1e+00, 2e+06]
Warning: Model contains large bounds
         Consider reformulating model or setting NumericFocus parameter
         to avoid numerical issues.
Using branch priorities (all 0).
Presolve added 68 rows and 0 columns
Presolve removed 0 rows and 44 columns
Presolve time: 0.00s
Presolved: 565 rows, 212 columns, 1501 nonzeros
Presolved model has 2 SOS constraint(s)
Presolved model has 86 bilinear constraint(s)
Warning: Model contains variables with very large bounds participating
         in product terms.
         Presolve was not able to compute smaller bounds for these variables.
         Consider bounding these variables or reformulating the model.


Solving non-convex MIQCP

Variable types: 62 continuous, 150 integer (42 binary)

Root relaxation: objective 8.600312e+02, 109 iterations, 0.00 seconds (0.00 work units)

    Nodes    |    Current Node    |     Objective Bounds      |     Work
 Expl Unexpl |  Obj  Depth IntInf | Incumbent    BestBd   Gap | It/Node Time

     0     0  860.03119    0   50          -  860.03119      -     -    0s
     0     0 1268.01495    0   85          - 1268.01495      -     -    0s
     0     0 1268.01495    0   85          - 1268.01495      -     -    0s
H    0     0                    730122.00000 1268.01495   100%     -    0s
H    0     0                    540978.00000 1268.01495   100%     -    0s
H    0     0                    540588.00000 1268.01495   100%     -    0s
     0     0 1703.17253    0  131 540588.000 1703.17253   100%     -    0s
     0     0 1713.64508    0  134 540588.000 1713.64508   100%     -    0s
H    0     0                    171974.00000 2097.29252  98.8%     -    0s
H    0     0                    92024.000000 2097.29252  97.7%     -    0s
     0     0 2097.29252    0  126 92024.0000 2097.29252  97.7%     -    0s
     0     0 2097.29252    0  138 92024.0000 2097.29252  97.7%     -    0s
     0     0 2534.84627    0  115 92024.0000 2534.84627  97.2%     -    0s
     0     0 3380.49750    0  125 92024.0000 3380.49750  96.3%     -    0s
H    0     0                    91634.000000 3380.49750  96.3%     -    0s
     0     0 3383.53971    0  121 91634.0000 3383.53971  96.3%     -    0s
     0     0 3455.65514    0  121 91634.0000 3455.65514  96.2%     -    0s
     0     0 80814.3782    0   55 91634.0000 80814.3782  11.8%     -    0s
H    0     0                    88309.000000 80814.3782  8.49%     -    0s
H    0     0                    87800.000000 80814.3782  7.96%     -    0s
     0     0 80819.6410    0   57 87800.0000 80819.6410  7.95%     -    0s
     0     0 80826.0410    0   65 87800.0000 80826.0410  7.94%     -    0s
     0     0 80826.0410    0   39 87800.0000 80826.0410  7.94%     -    0s
     0     0 80826.0410    0   47 87800.0000 80826.0410  7.94%     -    0s
     0     0 80826.9644    0   45 87800.0000 80826.9644  7.94%     -    0s
     0     0 80826.9662    0   66 87800.0000 80826.9662  7.94%     -    0s
H    0     0                    87605.000000 80827.9136  7.74%     -    0s
     0     0 80827.9136    0   66 87605.0000 80827.9136  7.74%     -    0s
     0     0 80827.9388    0   62 87605.0000 80827.9388  7.74%     -    0s
H    0     0                    87380.000000 80831.9337  7.49%     -    0s
     0     0 80831.9337    0   56 87380.0000 80831.9337  7.49%     -    0s
     0     0 80831.9337    0   63 87380.0000 80831.9337  7.49%     -    0s
H    0     0                    87185.000000 80833.8272  7.28%     -    0s
     0     0 80833.8272    0   69 87185.0000 80833.8272  7.28%     -    0s
H    0     0                    87170.000000 80833.8272  7.27%     -    0s
     0     0 80833.8272    0   69 87170.0000 80833.8272  7.27%     -    0s
     0     0 80833.8272    0   69 87170.0000 80833.8272  7.27%     -    0s
     0     0 80861.4818    0   69 87170.0000 80861.4818  7.24%     -    0s
     0     0 80939.6441    0   63 87170.0000 80939.6441  7.15%     -    0s
     0     0 80981.3946    0   66 87170.0000 80981.3946  7.10%     -    0s
     0     0 80988.1409    0   69 87170.0000 80988.1409  7.09%     -    0s
     0     0 80988.1409    0   68 87170.0000 80988.1409  7.09%     -    0s
     0     0 80988.1409    0   68 87170.0000 80988.1409  7.09%     -    0s
     0     0 80988.1409    0   68 87170.0000 80988.1409  7.09%     -    0s
     0     0 80988.1409    0   65 87170.0000 80988.1409  7.09%     -    0s
     0     0 80988.1409    0   67 87170.0000 80988.1409  7.09%     -    0s
     0     0 81009.4478    0   66 87170.0000 81009.4478  7.07%     -    0s
     0     0 81073.6361    0   66 87170.0000 81073.6361  6.99%     -    0s
     0     0 81085.7429    0   66 87170.0000 81085.7429  6.98%     -    0s
     0     0 81932.0077    0   67 87170.0000 81932.0077  6.01%     -    0s
     0     0 82333.8077    0   67 87170.0000 82333.8077  5.55%     -    0s
     0     0 83665.0691    0   50 87170.0000 83665.0691  4.02%     -    0s
     0     2 83665.0691    0   50 87170.0000 83665.0691  4.02%     -    0s
H   31    48                    86975.000000 83665.0691  3.81%  11.7    0s
H   91    93                    86765.000000 83665.0691  3.57%   8.6    1s
H   97    93                    86755.000000 83665.0691  3.56%   8.2    1s

Cutting planes:
  Learned: 1
  Gomory: 5
  Implied bound: 10
  MIR: 32
  StrongCG: 1
  Flow cover: 1
  RLT: 23

Explored 1582 nodes (6218 simplex iterations) in 1.29 seconds (0.12 work units)
Thread count was 32 (of 128 available processors)

Solution count 10: 86755 86765 86975 ... 91634

Optimal solution found (tolerance 1.00e-10)
Best objective 8.675500000000e+04, best bound 8.675500000000e+04, gap 0.0000%
